c generated by sgen
p cnf 77 164
-2 -3 -4 0
-1 -3 -4 0
-1 -2 -4 0
-1 -2 -3 0
-6 -7 -8 0
-5 -7 -8 0
-5 -6 -8 0
-5 -6 -7 0
-10 -11 -12 0
-9 -11 -12 0
-9 -10 -12 0
-9 -10 -11 0
-14 -15 -16 0
-13 -15 -16 0
-13 -14 -16 0
-13 -14 -15 0
-18 -19 -20 0
-17 -19 -20 0
-17 -18 -20 0
-17 -18 -19 0
-22 -23 -24 0
-21 -23 -24 0
-21 -22 -24 0
-21 -22 -23 0
-26 -27 -28 0
-25 -27 -28 0
-25 -26 -28 0
-25 -26 -27 0
-30 -31 -32 0
-29 -31 -32 0
-29 -30 -32 0
-29 -30 -31 0
-34 -35 -36 0
-33 -35 -36 0
-33 -34 -36 0
-33 -34 -35 0
-38 -39 -40 0
-37 -39 -40 0
-37 -38 -40 0
-37 -38 -39 0
-42 -43 -44 0
-41 -43 -44 0
-41 -42 -44 0
-41 -42 -43 0
-46 -47 -48 0
-45 -47 -48 0
-45 -46 -48 0
-45 -46 -47 0
-50 -51 -52 0
-49 -51 -52 0
-49 -50 -52 0
-49 -50 -51 0
-54 -55 -56 0
-53 -55 -56 0
-53 -54 -56 0
-53 -54 -55 0
-58 -59 -60 0
-57 -59 -60 0
-57 -58 -60 0
-57 -58 -59 0
-62 -63 -64 0
-61 -63 -64 0
-61 -62 -64 0
-61 -62 -63 0
-66 -67 -68 0
-65 -67 -68 0
-65 -66 -68 0
-65 -66 -67 0
-70 -71 -72 0
-69 -71 -72 0
-69 -70 -72 0
-69 -70 -71 0
-73 -74 -75 0
-73 -74 -76 0
-73 -74 -77 0
-73 -75 -76 0
-73 -75 -77 0
-73 -76 -77 0
-74 -75 -76 0
-74 -75 -77 0
-74 -76 -77 0
-75 -76 -77 0
22 36 55 0
4 36 55 0
4 22 55 0
4 22 36 0
27 31 8 0
13 31 8 0
13 27 8 0
13 27 31 0
57 56 73 0
50 56 73 0
50 57 73 0
50 57 56 0
63 75 24 0
26 75 24 0
26 63 24 0
26 63 75 0
39 12 43 0
23 12 43 0
23 39 43 0
23 39 12 0
35 71 29 0
65 71 29 0
65 35 29 0
65 35 71 0
33 52 6 0
76 52 6 0
76 33 6 0
76 33 52 0
7 19 21 0
68 19 21 0
68 7 21 0
68 7 19 0
60 61 42 0
69 61 42 0
69 60 42 0
69 60 61 0
51 15 1 0
44 15 1 0
44 51 1 0
44 51 15 0
72 14 11 0
74 14 11 0
74 72 11 0
74 72 14 0
70 47 30 0
2 47 30 0
2 70 30 0
2 70 47 0
17 25 37 0
34 25 37 0
34 17 37 0
34 17 25 0
77 67 41 0
45 67 41 0
45 77 41 0
45 77 67 0
10 54 66 0
28 54 66 0
28 10 66 0
28 10 54 0
5 48 16 0
59 48 16 0
59 5 16 0
59 5 48 0
20 40 53 0
32 40 53 0
32 20 53 0
32 20 40 0
38 62 58 0
3 62 58 0
3 38 58 0
3 38 62 0
9 49 64 0
9 49 46 0
9 49 18 0
9 64 46 0
9 64 18 0
9 46 18 0
49 64 46 0
49 64 18 0
49 46 18 0
64 46 18 0
